32      4       
16      13      14      11      
0       0       0       0       0       16      2       4       6       7       8       13      14      15      24      25      26      27      28      29      30      31      
4       0       1       0       3       1       3       
5       0       13      0       8       3       5       11      16      
5       9       1       0       0       4       11      16      18      23      
10      3       0       1       0       2       9       18      
1       0       6       1       0       3       17      21      22      
7       0       0       3       4       2       12      20      
1       2       1       0       0       2       16      17      
4       0       0       1       1       1       10      
9       0       0       2       3       1       17      
1       1       1       0       0       1       19      
5       1       6       0       0       1       16      
6       13      0       0       3       1       18      
5       0       1       0       7       1       16      
10      0       6       4       0       1       16      
3       2       0       8       0       1       32      
1       0       3       1       0       1       32      
6       0       0       4       1       1       32      
9       0       4       0       1       1       32      
6       6       0       6       0       1       32      
4       1       1       0       0       1       32      
1       1       0       0       2       1       32      
10      1       1       0       0       1       32      
7       10      0       6       0       1       32      
1       6       2       0       0       1       32      
6       0       2       0       1       1       32      
7       0       0       4       1       1       32      
8       1       0       0       1       1       32      
1       0       0       1       1       1       32      
3       3       0       3       0       1       32      
8       0       0       8       4       1       32      
0       0       0       0       0       0       
